1158.22
0 100 52 54 57 59 65 61 62 64 63 60 58 55 53 56 66 0 
0 110 40 43 45 48 47 46 44 41 42 39 38 37 49 50 51 0 
0 109 21 20 23 26 28 31 30 27 24 22 25 19 16 17 32 35 36 34 33 29 0 
0 91 6 7 9 10 11 15 14 13 12 8 4 3 5 2 1 0 
0 98 67 69 70 71 74 72 75 78 77 76 73 68 79 80 0 
0 85 112 84 117 113 83 18 118 114 108 90 96 93 94 97 115 116 103 104 0 
0 88 82 86 111 87 89 92 95 102 101 99 106 105 107 120 119 81 0 
